1968006452 3 0
398582715 5 4 0
1942686354 3 5 0
h 5 -9 0
h 7 8 -4 0
h -8 -11 0
h -11 9 4 -6 0
h -2 -14 0
h 11 -3 0
h -21 -22 -3 0
h 11 -23 0
h 19 1 0
h -4 2 5 0
h 2 22 -5 0
h -1 14 0
h -11 -19 0
h -3 -7 0
h 23 -19 0
h 2 9 6 0
h 21 -9 0
